HUN,8,6,641
0,99,4,57,5,28,3,20,2,61,1,100
5,24,4,71,2,72,0,25,3,40,1,12
4,38,2,83,5,49,1,36,3,40,0,66
5,55,0,62,3,8,4,9,1,33,2,74
3,16,5,89,4,22,0,91,1,13,2,39
2,26,0,95,5,77,4,54,1,62,3,84
0,49,3,87,4,87,2,99,1,32,5,58
4,82,2,6,3,99,1,81,5,25,0,80
